
  22   10
  10   10   10   10   10   10   10   10   10   10

   0   0   0   0   0   0   0   0   0   0   0   2 2 19 
   2  10   0   0   0   0   0   0   0   0   0   1 3 
   5   0   0   0   0   0  10   0   0   0   0   1 4 
  10  10   0   0   0   0   0   0   0   0   0   1 5 
   3   0   0   0   0  10   0   0   0   0   0   1 6 
   8  10   0   0   0   0   0   0   0   0   0   1 7 
   9   0   0   0   0   0  10   0   0   0   0   1 8 
   6   0   0   0   0   0   0   0   0  10   0   1 9 
   5   0   0   0   0   0  10   0   0   0   0   1 10 
   1   0   0   0   0   0   0   0  10   0   0   1 11 
  10   0   0   0   0   0   0   0  10   0   0   1 12 
   5   0   0  10   0   0   0   0   0   0   0   1 13 
   1   0   0   0   0  10   0   0   0   0   0   1 14 
   4   0   0   0   0   0   0   0   0   0  10   1 15 
   8   0   0   0   0   0   0   0   0   0  10   1 16 
   2   0   0   0   0   0   0   0  10   0   0   2 21 17 
   3   0   0   0   0   0   0   0   0   0  10   1 18 
   9   0   0  10   0   0   0   0   0   0   0   1 20 
   3   0   0   0   0   0   0   0  10   0   0   1 21 
   5   0   0   0   0   0  10   0   0   0   0   1 22
   9   0   0   0   0   0   0  10   0   0   0   1 22
   0   0   0   0   0   0   0   0   0   0   0   0 
